8374
48, 24, 5, 15, 6, 25, 4, 43, 45, 3, 17, 21, 42, 7, 2, 30, 50, 20, 23, 31, 18, 22, 1, 49, 32, 19, 41, 8, 9, 10, 33, 51, 12, 11, 52, 14, 13, 27, 28, 26, 47, 29, 16, 46, 44, 34, 35, 36, 39, 40, 37, 38
